
Gurobi 6.0.4 (win64) logging started 06/21/15 19:09:26

Read LP format model from file C:\MT\repository\VRPTWMS\instances\mip\fuel\N6-C_DV100-C_SV30_F6_13_No_1.lp
Reading time = 0.01 seconds
(null): 253 rows, 128 columns, 957 nonzeros
Optimize a model with 253 rows, 128 columns and 957 nonzeros
Model has 216 quadratic constraints
Coefficient statistics:
  Matrix range    [1e+00, 1e+06]
  Objective range [9e+04, 1e+07]
  Bounds range    [1e+00, 1e+06]
  RHS range       [1e+00, 1e+06]
Presolve removed 80 rows and 38 columns
Presolve time: 0.00s
Presolved: 349 rows, 178 columns, 1814 nonzeros
Variable types: 88 continuous, 90 integer (70 binary)
Found heuristic solution: objective 3.234710e+07

Root relaxation: objective 2.776904e+07, 37 iterations, 0.00 seconds

    Nodes    |    Current Node    |     Objective Bounds      |     Work
 Expl Unexpl |  Obj  Depth IntInf | Incumbent    BestBd   Gap | It/Node Time

     0     0 2.7769e+07    0   13 3.2347e+07 2.7769e+07  14.2%     -    0s
H    0     0                    3.194910e+07 2.7769e+07  13.1%     -    0s
     0     0     cutoff    0      3.1949e+07 3.1949e+07  0.00%     -    0s

Cutting planes:
  Learned: 2
  Cover: 2
  Implied bound: 2
  Clique: 7
  MIR: 2
  GUB cover: 1

Explored 0 nodes (64 simplex iterations) in 0.01 seconds
Thread count was 2 (of 4 available processors)

Optimal solution found (tolerance 1.00e-04)
Best objective 3.194910000000e+07, best bound 3.194910000000e+07, gap 0.0%
k_c1	939999.0
k_c2	1000000.0
k_c3	1000000.0
k_c4	40000.0
k_c5	959999.0
k_c6	919998.0
k_dN	-0.0
o_1	0.0
o_2	0.0
o_3	0.0
o_4	0.0
o_5	0.0
o_6	0.0
p_1	0.0
p_2	0.0
p_3	0.0
p_4	0.0
p_5	0.0
p_6	0.0
phi_c1	26135.0
phi_c2	37507.999999999985
phi_c3	41255.0
phi_c4	20779.0
phi_c5	32480.0
phi_c6	9319.0
phi_d0	60000.0
phi_dN	-0.0
tauD_c1	300000.0
tauD_c2	200000.0
tauD_c3	450000.0
tauD_c4	842350.0
tauD_c5	728624.0
tauD_c6	650000.0
tauD_d0	-0.0
tauD_dN	1000000.0
tauS_c1	841850.0
tauS_c2	835950.0
tauS_c3	849950.0
tauS_c4	842350.0
tauS_c5	871450.0
tauS_c6	885175.0
tauS_d0	-0.0
tauS_dN	147500.0
x_c1_dN	1.0
x_c2_c1	1.0
x_c3_c5	1.0
x_c4_dN	1.0
x_c5_c4	1.0
x_c6_dN	1.0
x_d0_c2	1.0
x_d0_c3	1.0
x_d0_c6	1.0
